robust/generate/spp_dkp_Lefebvre_et_al_2026/src/shortest_path_10_6.kp
48
318

[0.08 3.94 1.26 1.32 3.5 1.43 3.82 1.98 2.42 1.58 0.5 0.63 1.97 3.23 2.03 2.62 1.49 2.01 0.83 1.81 0.58 0.16 0.36 0.94 2.41 2.89 2.6 2.54 1.48 1.68 1.77 3.0 0.65 3.48 0.17 2.71 0.67 3.41 1.16 3.41 1.27 2.88 4.2 4.06 0.73 1.49 0.4 3.06 3.0 4.02 1.35 0.8 0.15 1.64 4.25 2.56 3.93 2.29 3.22 1.69 4.38 1.73 0.63 4.01 0.27 0.4 2.06 0.0 3.04 1.68 3.15 2.68]

[51 25 23 10 33 67 78 75 83 33 49 92 36 9 83 63 48 74 13 86 27 42 22 74 83 26 11 21 44 78 8 31 92 89 87 45 92 10 77 21 24 89 59 82 3 71 10 39 76 80 99 18 21 3 55 7 81 25 6 96 5 100 23 63 27 23 36 54 59 31 76 56]
