robust/generate/spp_dkp_Lefebvre_et_al_2026/src/shortest_path_10_6.lp
\ Model sp_10_6
\ LP format - for model browsing. Use MPS format to capture full model detail.
\ Signature: 0x2d727e941e4a4ef5
Minimize
  62.27 y[0,1] + 35 y[0,2] + 68.88 y[0,3] + 17.09 y[0,4] + 60.75 y[0,5]
   + 24.21 y[0,6] + 67.36 y[0,7] + 61.47 y[0,8] + 17.69 y[0,9]
   + 62.27 y[1,0] + 75.06 y[1,2] + 37.2 y[1,3] + 67.18 y[1,4]
   + 63.41 y[1,6] + 13.34 y[1,7] + 8.54 y[1,8] + 35 y[2,0] + 75.06 y[2,1]
   + 62.43 y[2,3] + 51.62 y[2,4] + 29 y[2,5] + 59.2 y[2,6] + 73.76 y[2,7]
   + 78.16 y[2,8] + 40.79 y[2,9] + 68.88 y[3,0] + 37.2 y[3,1]
   + 62.43 y[3,2] + 53.15 y[3,5] + 25.5 y[3,7] + 45.49 y[3,8]
   + 17.09 y[4,0] + 67.18 y[4,1] + 51.62 y[4,2] + 77.83 y[4,5]
   + 9.49 y[4,6] + 75 y[4,7] + 64.2 y[4,8] + 19.42 y[4,9] + 60.75 y[5,0]
   + 29 y[5,2] + 53.15 y[5,3] + 77.83 y[5,4] + 73.16 y[5,7] + 69.46 y[5,9]
   + 24.21 y[6,0] + 63.41 y[6,1] + 59.2 y[6,2] + 9.49 y[6,4] + 72.56 y[6,7]
   + 59.4 y[6,8] + 28.86 y[6,9] + 67.36 y[7,0] + 13.34 y[7,1]
   + 73.76 y[7,2] + 25.5 y[7,3] + 75 y[7,4] + 73.16 y[7,5] + 72.56 y[7,6]
   + 21.84 y[7,8] + 61.47 y[8,0] + 8.54 y[8,1] + 78.16 y[8,2]
   + 45.49 y[8,3] + 64.2 y[8,4] + 59.4 y[8,6] + 21.84 y[8,7] + 17.69 y[9,0]
   + 40.79 y[9,2] + 19.42 y[9,4] + 69.46 y[9,5] + 28.86 y[9,6]
   + 6.227 r[0,1] + 3.5 r[0,2] + 6.888 r[0,3] + 1.709 r[0,4] + 6.075 r[0,5]
   + 2.421 r[0,6] + 6.736 r[0,7] + 6.147 r[0,8] + 1.769 r[0,9]
   + 6.227 r[1,0] + 7.506 r[1,2] + 3.72 r[1,3] + 6.718 r[1,4]
   + 6.341 r[1,6] + 1.334 r[1,7] + 0.854 r[1,8] + 3.5 r[2,0] + 7.506 r[2,1]
   + 6.243 r[2,3] + 5.162 r[2,4] + 2.9 r[2,5] + 5.92 r[2,6] + 7.376 r[2,7]
   + 7.816 r[2,8] + 4.079 r[2,9] + 6.888 r[3,0] + 3.72 r[3,1]
   + 6.243 r[3,2] + 5.315 r[3,5] + 2.55 r[3,7] + 4.549 r[3,8]
   + 1.709 r[4,0] + 6.718 r[4,1] + 5.162 r[4,2] + 7.783 r[4,5]
   + 0.949 r[4,6] + 7.5 r[4,7] + 6.42 r[4,8] + 1.942 r[4,9] + 6.075 r[5,0]
   + 2.9 r[5,2] + 5.315 r[5,3] + 7.783 r[5,4] + 7.316 r[5,7] + 6.946 r[5,9]
   + 2.421 r[6,0] + 6.341 r[6,1] + 5.92 r[6,2] + 0.949 r[6,4]
   + 7.256 r[6,7] + 5.94 r[6,8] + 2.886 r[6,9] + 6.736 r[7,0]
   + 1.334 r[7,1] + 7.376 r[7,2] + 2.55 r[7,3] + 7.5 r[7,4] + 7.316 r[7,5]
   + 7.256 r[7,6] + 2.184 r[7,8] + 6.147 r[8,0] + 0.854 r[8,1]
   + 7.816 r[8,2] + 4.549 r[8,3] + 6.42 r[8,4] + 5.94 r[8,6] + 2.184 r[8,7]
   + 1.769 r[9,0] + 4.079 r[9,2] + 1.942 r[9,4] + 6.946 r[9,5]
   + 2.886 r[9,6]
Subject To
 flow_cons_inner_nodes[0]: - y[0,1] - y[0,2] - y[0,3] - y[0,4] - y[0,5]
   - y[0,6] - y[0,7] - y[0,8] - y[0,9] + y[1,0] + y[2,0] + y[3,0] + y[4,0]
   + y[5,0] + y[6,0] + y[7,0] + y[8,0] + y[9,0] = 0
 flow_cons_inner_nodes[1]: y[0,1] - y[1,0] - y[1,2] - y[1,3] - y[1,4]
   - y[1,6] - y[1,7] - y[1,8] + y[2,1] + y[3,1] + y[4,1] + y[6,1] + y[7,1]
   + y[8,1] = 0
 flow_cons_inner_nodes[2]: y[0,2] + y[1,2] - y[2,0] - y[2,1] - y[2,3]
   - y[2,4] - y[2,5] - y[2,6] - y[2,7] - y[2,8] - y[2,9] + y[3,2] + y[4,2]
   + y[5,2] + y[6,2] + y[7,2] + y[8,2] + y[9,2] = 0
 flow_cons_inner_nodes[4]: y[0,4] + y[1,4] + y[2,4] - y[4,0] - y[4,1]
   - y[4,2] - y[4,5] - y[4,6] - y[4,7] - y[4,8] - y[4,9] + y[5,4] + y[6,4]
   + y[7,4] + y[8,4] + y[9,4] = 0
 flow_cons_inner_nodes[5]: y[0,5] + y[2,5] + y[3,5] + y[4,5] - y[5,0]
   - y[5,2] - y[5,3] - y[5,4] - y[5,7] - y[5,9] + y[7,5] + y[9,5] = 0
 flow_cons_inner_nodes[6]: y[0,6] + y[1,6] + y[2,6] + y[4,6] - y[6,0]
   - y[6,1] - y[6,2] - y[6,4] - y[6,7] - y[6,8] - y[6,9] + y[7,6] + y[8,6]
   + y[9,6] = 0
 flow_cons_inner_nodes[7]: y[0,7] + y[1,7] + y[2,7] + y[3,7] + y[4,7]
   + y[5,7] + y[6,7] - y[7,0] - y[7,1] - y[7,2] - y[7,3] - y[7,4] - y[7,5]
   - y[7,6] - y[7,8] + y[8,7] = 0
 flow_cons_inner_nodes[8]: y[0,8] + y[1,8] + y[2,8] + y[3,8] + y[4,8]
   + y[6,8] + y[7,8] - y[8,0] - y[8,1] - y[8,2] - y[8,3] - y[8,4] - y[8,6]
   - y[8,7] = 0
 flow_cons_source: - y[0,3] - y[1,3] - y[2,3] + y[3,0] + y[3,1] + y[3,2]
   + y[3,5] + y[3,7] + y[3,8] - y[5,3] - y[7,3] - y[8,3] = 1
 flow_cons_target: y[0,9] + y[2,9] + y[4,9] + y[5,9] + y[6,9] - y[9,0]
   - y[9,2] - y[9,4] - y[9,5] - y[9,6] = 1
 primal_lower: - 0.08 y[0,1] - 3.94 y[0,2] - 1.26 y[0,3] - 1.32 y[0,4]
   - 3.5 y[0,5] - 1.43 y[0,6] - 3.82 y[0,7] - 1.98 y[0,8] - 2.42 y[0,9]
   - 1.58 y[1,0] - 0.5 y[1,2] - 0.63 y[1,3] - 1.97 y[1,4] - 3.23 y[1,6]
   - 2.03 y[1,7] - 2.62 y[1,8] - 1.49 y[2,0] - 2.01 y[2,1] - 0.83 y[2,3]
   - 1.81 y[2,4] - 0.58 y[2,5] - 0.16 y[2,6] - 0.36 y[2,7] - 0.94 y[2,8]
   - 2.41 y[2,9] - 2.89 y[3,0] - 2.6 y[3,1] - 2.54 y[3,2] - 1.48 y[3,5]
   - 1.68 y[3,7] - 1.77 y[3,8] - 3 y[4,0] - 0.65 y[4,1] - 3.48 y[4,2]
   - 0.17 y[4,5] - 2.71 y[4,6] - 0.67 y[4,7] - 3.41 y[4,8] - 1.16 y[4,9]
   - 3.41 y[5,0] - 1.27 y[5,2] - 2.88 y[5,3] - 4.2 y[5,4] - 4.06 y[5,7]
   - 0.73 y[5,9] - 1.49 y[6,0] - 0.4 y[6,1] - 3.06 y[6,2] - 3 y[6,4]
   - 4.02 y[6,7] - 1.35 y[6,8] - 0.8 y[6,9] - 0.15 y[7,0] - 1.64 y[7,1]
   - 4.25 y[7,2] - 2.56 y[7,3] - 3.93 y[7,4] - 2.29 y[7,5] - 3.22 y[7,6]
   - 1.69 y[7,8] - 4.38 y[8,0] - 1.73 y[8,1] - 0.63 y[8,2] - 4.01 y[8,3]
   - 0.27 y[8,4] - 0.4 y[8,6] - 2.06 y[8,7] - 3.04 y[9,2] - 1.68 y[9,4]
   - 3.15 y[9,5] - 2.68 y[9,6] + 51 u[0,1] + 25 u[0,2] + 23 u[0,3]
   + 10 u[0,4] + 33 u[0,5] + 67 u[0,6] + 78 u[0,7] + 75 u[0,8] + 83 u[0,9]
   + 33 u[1,0] + 49 u[1,2] + 92 u[1,3] + 36 u[1,4] + 9 u[1,6] + 83 u[1,7]
   + 63 u[1,8] + 48 u[2,0] + 74 u[2,1] + 13 u[2,3] + 86 u[2,4] + 27 u[2,5]
   + 42 u[2,6] + 22 u[2,7] + 74 u[2,8] + 83 u[2,9] + 26 u[3,0] + 11 u[3,1]
   + 21 u[3,2] + 44 u[3,5] + 78 u[3,7] + 8 u[3,8] + 31 u[4,0] + 92 u[4,1]
   + 89 u[4,2] + 87 u[4,5] + 45 u[4,6] + 92 u[4,7] + 10 u[4,8] + 77 u[4,9]
   + 21 u[5,0] + 24 u[5,2] + 89 u[5,3] + 59 u[5,4] + 82 u[5,7] + 3 u[5,9]
   + 71 u[6,0] + 10 u[6,1] + 39 u[6,2] + 76 u[6,4] + 80 u[6,7] + 99 u[6,8]
   + 18 u[6,9] + 21 u[7,0] + 3 u[7,1] + 55 u[7,2] + 7 u[7,3] + 81 u[7,4]
   + 25 u[7,5] + 6 u[7,6] + 96 u[7,8] + 5 u[8,0] + 100 u[8,1] + 23 u[8,2]
   + 63 u[8,3] + 27 u[8,4] + 23 u[8,6] + 36 u[8,7] + 54 u[9,0] + 59 u[9,2]
   + 31 u[9,4] + 76 u[9,5] + 56 u[9,6] <= 318
 mccormick1[0,1]: - u[0,1] + r[0,1] <= 0
 mccormick1[0,2]: - u[0,2] + r[0,2] <= 0
 mccormick1[0,3]: - u[0,3] + r[0,3] <= 0
 mccormick1[0,4]: - u[0,4] + r[0,4] <= 0
 mccormick1[0,5]: - u[0,5] + r[0,5] <= 0
 mccormick1[0,6]: - u[0,6] + r[0,6] <= 0
 mccormick1[0,7]: - u[0,7] + r[0,7] <= 0
 mccormick1[0,8]: - u[0,8] + r[0,8] <= 0
 mccormick1[0,9]: - u[0,9] + r[0,9] <= 0
 mccormick1[1,0]: - u[1,0] + r[1,0] <= 0
 mccormick1[1,2]: - u[1,2] + r[1,2] <= 0
 mccormick1[1,3]: - u[1,3] + r[1,3] <= 0
 mccormick1[1,4]: - u[1,4] + r[1,4] <= 0
 mccormick1[1,6]: - u[1,6] + r[1,6] <= 0
 mccormick1[1,7]: - u[1,7] + r[1,7] <= 0
 mccormick1[1,8]: - u[1,8] + r[1,8] <= 0
 mccormick1[2,0]: - u[2,0] + r[2,0] <= 0
 mccormick1[2,1]: - u[2,1] + r[2,1] <= 0
 mccormick1[2,3]: - u[2,3] + r[2,3] <= 0
 mccormick1[2,4]: - u[2,4] + r[2,4] <= 0
 mccormick1[2,5]: - u[2,5] + r[2,5] <= 0
 mccormick1[2,6]: - u[2,6] + r[2,6] <= 0
 mccormick1[2,7]: - u[2,7] + r[2,7] <= 0
 mccormick1[2,8]: - u[2,8] + r[2,8] <= 0
 mccormick1[2,9]: - u[2,9] + r[2,9] <= 0
 mccormick1[3,0]: - u[3,0] + r[3,0] <= 0
 mccormick1[3,1]: - u[3,1] + r[3,1] <= 0
 mccormick1[3,2]: - u[3,2] + r[3,2] <= 0
 mccormick1[3,5]: - u[3,5] + r[3,5] <= 0
 mccormick1[3,7]: - u[3,7] + r[3,7] <= 0
 mccormick1[3,8]: - u[3,8] + r[3,8] <= 0
 mccormick1[4,0]: - u[4,0] + r[4,0] <= 0
 mccormick1[4,1]: - u[4,1] + r[4,1] <= 0
 mccormick1[4,2]: - u[4,2] + r[4,2] <= 0
 mccormick1[4,5]: - u[4,5] + r[4,5] <= 0
 mccormick1[4,6]: - u[4,6] + r[4,6] <= 0
 mccormick1[4,7]: - u[4,7] + r[4,7] <= 0
 mccormick1[4,8]: - u[4,8] + r[4,8] <= 0
 mccormick1[4,9]: - u[4,9] + r[4,9] <= 0
 mccormick1[5,0]: - u[5,0] + r[5,0] <= 0
 mccormick1[5,2]: - u[5,2] + r[5,2] <= 0
 mccormick1[5,3]: - u[5,3] + r[5,3] <= 0
 mccormick1[5,4]: - u[5,4] + r[5,4] <= 0
 mccormick1[5,7]: - u[5,7] + r[5,7] <= 0
 mccormick1[5,9]: - u[5,9] + r[5,9] <= 0
 mccormick1[6,0]: - u[6,0] + r[6,0] <= 0
 mccormick1[6,1]: - u[6,1] + r[6,1] <= 0
 mccormick1[6,2]: - u[6,2] + r[6,2] <= 0
 mccormick1[6,4]: - u[6,4] + r[6,4] <= 0
 mccormick1[6,7]: - u[6,7] + r[6,7] <= 0
 mccormick1[6,8]: - u[6,8] + r[6,8] <= 0
 mccormick1[6,9]: - u[6,9] + r[6,9] <= 0
 mccormick1[7,0]: - u[7,0] + r[7,0] <= 0
 mccormick1[7,1]: - u[7,1] + r[7,1] <= 0
 mccormick1[7,2]: - u[7,2] + r[7,2] <= 0
 mccormick1[7,3]: - u[7,3] + r[7,3] <= 0
 mccormick1[7,4]: - u[7,4] + r[7,4] <= 0
 mccormick1[7,5]: - u[7,5] + r[7,5] <= 0
 mccormick1[7,6]: - u[7,6] + r[7,6] <= 0
 mccormick1[7,8]: - u[7,8] + r[7,8] <= 0
 mccormick1[8,0]: - u[8,0] + r[8,0] <= 0
 mccormick1[8,1]: - u[8,1] + r[8,1] <= 0
 mccormick1[8,2]: - u[8,2] + r[8,2] <= 0
 mccormick1[8,3]: - u[8,3] + r[8,3] <= 0
 mccormick1[8,4]: - u[8,4] + r[8,4] <= 0
 mccormick1[8,6]: - u[8,6] + r[8,6] <= 0
 mccormick1[8,7]: - u[8,7] + r[8,7] <= 0
 mccormick1[9,0]: - u[9,0] + r[9,0] <= 0
 mccormick1[9,2]: - u[9,2] + r[9,2] <= 0
 mccormick1[9,4]: - u[9,4] + r[9,4] <= 0
 mccormick1[9,5]: - u[9,5] + r[9,5] <= 0
 mccormick1[9,6]: - u[9,6] + r[9,6] <= 0
 mccormick2[0,1]: - y[0,1] + r[0,1] <= 0
 mccormick2[0,2]: - y[0,2] + r[0,2] <= 0
 mccormick2[0,3]: - y[0,3] + r[0,3] <= 0
 mccormick2[0,4]: - y[0,4] + r[0,4] <= 0
 mccormick2[0,5]: - y[0,5] + r[0,5] <= 0
 mccormick2[0,6]: - y[0,6] + r[0,6] <= 0
 mccormick2[0,7]: - y[0,7] + r[0,7] <= 0
 mccormick2[0,8]: - y[0,8] + r[0,8] <= 0
 mccormick2[0,9]: - y[0,9] + r[0,9] <= 0
 mccormick2[1,0]: - y[1,0] + r[1,0] <= 0
 mccormick2[1,2]: - y[1,2] + r[1,2] <= 0
 mccormick2[1,3]: - y[1,3] + r[1,3] <= 0
 mccormick2[1,4]: - y[1,4] + r[1,4] <= 0
 mccormick2[1,6]: - y[1,6] + r[1,6] <= 0
 mccormick2[1,7]: - y[1,7] + r[1,7] <= 0
 mccormick2[1,8]: - y[1,8] + r[1,8] <= 0
 mccormick2[2,0]: - y[2,0] + r[2,0] <= 0
 mccormick2[2,1]: - y[2,1] + r[2,1] <= 0
 mccormick2[2,3]: - y[2,3] + r[2,3] <= 0
 mccormick2[2,4]: - y[2,4] + r[2,4] <= 0
 mccormick2[2,5]: - y[2,5] + r[2,5] <= 0
 mccormick2[2,6]: - y[2,6] + r[2,6] <= 0
 mccormick2[2,7]: - y[2,7] + r[2,7] <= 0
 mccormick2[2,8]: - y[2,8] + r[2,8] <= 0
 mccormick2[2,9]: - y[2,9] + r[2,9] <= 0
 mccormick2[3,0]: - y[3,0] + r[3,0] <= 0
 mccormick2[3,1]: - y[3,1] + r[3,1] <= 0
 mccormick2[3,2]: - y[3,2] + r[3,2] <= 0
 mccormick2[3,5]: - y[3,5] + r[3,5] <= 0
 mccormick2[3,7]: - y[3,7] + r[3,7] <= 0
 mccormick2[3,8]: - y[3,8] + r[3,8] <= 0
 mccormick2[4,0]: - y[4,0] + r[4,0] <= 0
 mccormick2[4,1]: - y[4,1] + r[4,1] <= 0
 mccormick2[4,2]: - y[4,2] + r[4,2] <= 0
 mccormick2[4,5]: - y[4,5] + r[4,5] <= 0
 mccormick2[4,6]: - y[4,6] + r[4,6] <= 0
 mccormick2[4,7]: - y[4,7] + r[4,7] <= 0
 mccormick2[4,8]: - y[4,8] + r[4,8] <= 0
 mccormick2[4,9]: - y[4,9] + r[4,9] <= 0
 mccormick2[5,0]: - y[5,0] + r[5,0] <= 0
 mccormick2[5,2]: - y[5,2] + r[5,2] <= 0
 mccormick2[5,3]: - y[5,3] + r[5,3] <= 0
 mccormick2[5,4]: - y[5,4] + r[5,4] <= 0
 mccormick2[5,7]: - y[5,7] + r[5,7] <= 0
 mccormick2[5,9]: - y[5,9] + r[5,9] <= 0
 mccormick2[6,0]: - y[6,0] + r[6,0] <= 0
 mccormick2[6,1]: - y[6,1] + r[6,1] <= 0
 mccormick2[6,2]: - y[6,2] + r[6,2] <= 0
 mccormick2[6,4]: - y[6,4] + r[6,4] <= 0
 mccormick2[6,7]: - y[6,7] + r[6,7] <= 0
 mccormick2[6,8]: - y[6,8] + r[6,8] <= 0
 mccormick2[6,9]: - y[6,9] + r[6,9] <= 0
 mccormick2[7,0]: - y[7,0] + r[7,0] <= 0
 mccormick2[7,1]: - y[7,1] + r[7,1] <= 0
 mccormick2[7,2]: - y[7,2] + r[7,2] <= 0
 mccormick2[7,3]: - y[7,3] + r[7,3] <= 0
 mccormick2[7,4]: - y[7,4] + r[7,4] <= 0
 mccormick2[7,5]: - y[7,5] + r[7,5] <= 0
 mccormick2[7,6]: - y[7,6] + r[7,6] <= 0
 mccormick2[7,8]: - y[7,8] + r[7,8] <= 0
 mccormick2[8,0]: - y[8,0] + r[8,0] <= 0
 mccormick2[8,1]: - y[8,1] + r[8,1] <= 0
 mccormick2[8,2]: - y[8,2] + r[8,2] <= 0
 mccormick2[8,3]: - y[8,3] + r[8,3] <= 0
 mccormick2[8,4]: - y[8,4] + r[8,4] <= 0
 mccormick2[8,6]: - y[8,6] + r[8,6] <= 0
 mccormick2[8,7]: - y[8,7] + r[8,7] <= 0
 mccormick2[9,0]: - y[9,0] + r[9,0] <= 0
 mccormick2[9,2]: - y[9,2] + r[9,2] <= 0
 mccormick2[9,4]: - y[9,4] + r[9,4] <= 0
 mccormick2[9,5]: - y[9,5] + r[9,5] <= 0
 mccormick2[9,6]: - y[9,6] + r[9,6] <= 0
 mccormick3[0,1]: - y[0,1] - u[0,1] + r[0,1] >= -1
 mccormick3[0,2]: - y[0,2] - u[0,2] + r[0,2] >= -1
 mccormick3[0,3]: - y[0,3] - u[0,3] + r[0,3] >= -1
 mccormick3[0,4]: - y[0,4] - u[0,4] + r[0,4] >= -1
 mccormick3[0,5]: - y[0,5] - u[0,5] + r[0,5] >= -1
 mccormick3[0,6]: - y[0,6] - u[0,6] + r[0,6] >= -1
 mccormick3[0,7]: - y[0,7] - u[0,7] + r[0,7] >= -1
 mccormick3[0,8]: - y[0,8] - u[0,8] + r[0,8] >= -1
 mccormick3[0,9]: - y[0,9] - u[0,9] + r[0,9] >= -1
 mccormick3[1,0]: - y[1,0] - u[1,0] + r[1,0] >= -1
 mccormick3[1,2]: - y[1,2] - u[1,2] + r[1,2] >= -1
 mccormick3[1,3]: - y[1,3] - u[1,3] + r[1,3] >= -1
 mccormick3[1,4]: - y[1,4] - u[1,4] + r[1,4] >= -1
 mccormick3[1,6]: - y[1,6] - u[1,6] + r[1,6] >= -1
 mccormick3[1,7]: - y[1,7] - u[1,7] + r[1,7] >= -1
 mccormick3[1,8]: - y[1,8] - u[1,8] + r[1,8] >= -1
 mccormick3[2,0]: - y[2,0] - u[2,0] + r[2,0] >= -1
 mccormick3[2,1]: - y[2,1] - u[2,1] + r[2,1] >= -1
 mccormick3[2,3]: - y[2,3] - u[2,3] + r[2,3] >= -1
 mccormick3[2,4]: - y[2,4] - u[2,4] + r[2,4] >= -1
 mccormick3[2,5]: - y[2,5] - u[2,5] + r[2,5] >= -1
 mccormick3[2,6]: - y[2,6] - u[2,6] + r[2,6] >= -1
 mccormick3[2,7]: - y[2,7] - u[2,7] + r[2,7] >= -1
 mccormick3[2,8]: - y[2,8] - u[2,8] + r[2,8] >= -1
 mccormick3[2,9]: - y[2,9] - u[2,9] + r[2,9] >= -1
 mccormick3[3,0]: - y[3,0] - u[3,0] + r[3,0] >= -1
 mccormick3[3,1]: - y[3,1] - u[3,1] + r[3,1] >= -1
 mccormick3[3,2]: - y[3,2] - u[3,2] + r[3,2] >= -1
 mccormick3[3,5]: - y[3,5] - u[3,5] + r[3,5] >= -1
 mccormick3[3,7]: - y[3,7] - u[3,7] + r[3,7] >= -1
 mccormick3[3,8]: - y[3,8] - u[3,8] + r[3,8] >= -1
 mccormick3[4,0]: - y[4,0] - u[4,0] + r[4,0] >= -1
 mccormick3[4,1]: - y[4,1] - u[4,1] + r[4,1] >= -1
 mccormick3[4,2]: - y[4,2] - u[4,2] + r[4,2] >= -1
 mccormick3[4,5]: - y[4,5] - u[4,5] + r[4,5] >= -1
 mccormick3[4,6]: - y[4,6] - u[4,6] + r[4,6] >= -1
 mccormick3[4,7]: - y[4,7] - u[4,7] + r[4,7] >= -1
 mccormick3[4,8]: - y[4,8] - u[4,8] + r[4,8] >= -1
 mccormick3[4,9]: - y[4,9] - u[4,9] + r[4,9] >= -1
 mccormick3[5,0]: - y[5,0] - u[5,0] + r[5,0] >= -1
 mccormick3[5,2]: - y[5,2] - u[5,2] + r[5,2] >= -1
 mccormick3[5,3]: - y[5,3] - u[5,3] + r[5,3] >= -1
 mccormick3[5,4]: - y[5,4] - u[5,4] + r[5,4] >= -1
 mccormick3[5,7]: - y[5,7] - u[5,7] + r[5,7] >= -1
 mccormick3[5,9]: - y[5,9] - u[5,9] + r[5,9] >= -1
 mccormick3[6,0]: - y[6,0] - u[6,0] + r[6,0] >= -1
 mccormick3[6,1]: - y[6,1] - u[6,1] + r[6,1] >= -1
 mccormick3[6,2]: - y[6,2] - u[6,2] + r[6,2] >= -1
 mccormick3[6,4]: - y[6,4] - u[6,4] + r[6,4] >= -1
 mccormick3[6,7]: - y[6,7] - u[6,7] + r[6,7] >= -1
 mccormick3[6,8]: - y[6,8] - u[6,8] + r[6,8] >= -1
 mccormick3[6,9]: - y[6,9] - u[6,9] + r[6,9] >= -1
 mccormick3[7,0]: - y[7,0] - u[7,0] + r[7,0] >= -1
 mccormick3[7,1]: - y[7,1] - u[7,1] + r[7,1] >= -1
 mccormick3[7,2]: - y[7,2] - u[7,2] + r[7,2] >= -1
 mccormick3[7,3]: - y[7,3] - u[7,3] + r[7,3] >= -1
 mccormick3[7,4]: - y[7,4] - u[7,4] + r[7,4] >= -1
 mccormick3[7,5]: - y[7,5] - u[7,5] + r[7,5] >= -1
 mccormick3[7,6]: - y[7,6] - u[7,6] + r[7,6] >= -1
 mccormick3[7,8]: - y[7,8] - u[7,8] + r[7,8] >= -1
 mccormick3[8,0]: - y[8,0] - u[8,0] + r[8,0] >= -1
 mccormick3[8,1]: - y[8,1] - u[8,1] + r[8,1] >= -1
 mccormick3[8,2]: - y[8,2] - u[8,2] + r[8,2] >= -1
 mccormick3[8,3]: - y[8,3] - u[8,3] + r[8,3] >= -1
 mccormick3[8,4]: - y[8,4] - u[8,4] + r[8,4] >= -1
 mccormick3[8,6]: - y[8,6] - u[8,6] + r[8,6] >= -1
 mccormick3[8,7]: - y[8,7] - u[8,7] + r[8,7] >= -1
 mccormick3[9,0]: - y[9,0] - u[9,0] + r[9,0] >= -1
 mccormick3[9,2]: - y[9,2] - u[9,2] + r[9,2] >= -1
 mccormick3[9,4]: - y[9,4] - u[9,4] + r[9,4] >= -1
 mccormick3[9,5]: - y[9,5] - u[9,5] + r[9,5] >= -1
 mccormick3[9,6]: - y[9,6] - u[9,6] + r[9,6] >= -1
Bounds
Binaries
 y[0,1] y[0,2] y[0,3] y[0,4] y[0,5] y[0,6] y[0,7] y[0,8] y[0,9] y[1,0]
 y[1,2] y[1,3] y[1,4] y[1,6] y[1,7] y[1,8] y[2,0] y[2,1] y[2,3] y[2,4]
 y[2,5] y[2,6] y[2,7] y[2,8] y[2,9] y[3,0] y[3,1] y[3,2] y[3,5] y[3,7]
 y[3,8] y[4,0] y[4,1] y[4,2] y[4,5] y[4,6] y[4,7] y[4,8] y[4,9] y[5,0]
 y[5,2] y[5,3] y[5,4] y[5,7] y[5,9] y[6,0] y[6,1] y[6,2] y[6,4] y[6,7]
 y[6,8] y[6,9] y[7,0] y[7,1] y[7,2] y[7,3] y[7,4] y[7,5] y[7,6] y[7,8]
 y[8,0] y[8,1] y[8,2] y[8,3] y[8,4] y[8,6] y[8,7] y[9,0] y[9,2] y[9,4]
 y[9,5] y[9,6] u[0,1] u[0,2] u[0,3] u[0,4] u[0,5] u[0,6] u[0,7] u[0,8]
 u[0,9] u[1,0] u[1,2] u[1,3] u[1,4] u[1,6] u[1,7] u[1,8] u[2,0] u[2,1]
 u[2,3] u[2,4] u[2,5] u[2,6] u[2,7] u[2,8] u[2,9] u[3,0] u[3,1] u[3,2]
 u[3,5] u[3,7] u[3,8] u[4,0] u[4,1] u[4,2] u[4,5] u[4,6] u[4,7] u[4,8]
 u[4,9] u[5,0] u[5,2] u[5,3] u[5,4] u[5,7] u[5,9] u[6,0] u[6,1] u[6,2]
 u[6,4] u[6,7] u[6,8] u[6,9] u[7,0] u[7,1] u[7,2] u[7,3] u[7,4] u[7,5]
 u[7,6] u[7,8] u[8,0] u[8,1] u[8,2] u[8,3] u[8,4] u[8,6] u[8,7] u[9,0]
 u[9,2] u[9,4] u[9,5] u[9,6] r[0,1] r[0,2] r[0,3] r[0,4] r[0,5] r[0,6]
 r[0,7] r[0,8] r[0,9] r[1,0] r[1,2] r[1,3] r[1,4] r[1,6] r[1,7] r[1,8]
 r[2,0] r[2,1] r[2,3] r[2,4] r[2,5] r[2,6] r[2,7] r[2,8] r[2,9] r[3,0]
 r[3,1] r[3,2] r[3,5] r[3,7] r[3,8] r[4,0] r[4,1] r[4,2] r[4,5] r[4,6]
 r[4,7] r[4,8] r[4,9] r[5,0] r[5,2] r[5,3] r[5,4] r[5,7] r[5,9] r[6,0]
 r[6,1] r[6,2] r[6,4] r[6,7] r[6,8] r[6,9] r[7,0] r[7,1] r[7,2] r[7,3]
 r[7,4] r[7,5] r[7,6] r[7,8] r[8,0] r[8,1] r[8,2] r[8,3] r[8,4] r[8,6]
 r[8,7] r[9,0] r[9,2] r[9,4] r[9,5] r[9,6]
End
